p cnf 20 28
8 9 13 -14 -12 -10 -4 0
5 -18 0
3 -10 0
-14 -6 0
3 13 0
9 5 15 0
-16 -6 0
-4 -18 0
-8 17 0
11 21 -2 0
1 -7 -21 13 9 15 0
5 13 0
1 -4 0
-14 2 -10 8 -18 15 0
-6 13 0
-16 1 -2 0
19 -12 15 0
-16 2 -10 -8 11 -19 0
-14 4 -10 9 -19 -18 0
17 2 11 -4 -19 -1 0
-16 17 -14 -10 11 13 -18 0
17 -10 9 11 13 -18 15 0
17 11 -19 1 0
9 -21 -7 -18 0
-16 -14 10 5 0
-21 -19 -10 0
-4 7 0
-8 -12 4 0
